18
 0  3  5 48 48  8  8  5  5  3  3  0  3  5  8  8  5 9
 3  0  3 48 48  8  8  5  5  0  0  3  0  3  8  8  5 10
 5  3  0 72 72 48 48 24 24  3  3  5  3  0 48 48 24 15
48 48 74  0  0  6  6 12 12 48 48 48 48 74  6  6 12 7
48 48 74  0  0  6  6 12 12 48 48 48 48 74  6  6 12 6
 8  8 50  6  6  0  0  8  8  8  8  8  8 50  0  0  8 5
 8  8 50  6  6  0  0  8  8  8  8  8  8 50  0  0  8 6
 5  5 26 12 12  8  8  0  0  5  5  5  5 26  8  8  0 9
 5  5 26 12 12  8  8  0  0  5  5  5  5 26  8  8  0 10
 3  0  3 48 48  8  8  5  5  0  0  3  0  3  8  8  5 3
 3  0  3 48 48  8  8  5  5  0  0  3  0  3  8  8  5 2
 0  3  5 48 48  8  8  5  5  3  3  0  3  5  8  8  5 0
 3  0  3 48 48  8  8  5  5  0  0  3  0  3  8  8  5 5
 5  3  0 72 72 48 48 24 24  3  3  5  3  0 48 48 24 8
 8  8 50  6  6  0  0  8  8  8  8  8  8 50  0  0  8 14
 8  8 50  6  6  0  0  8  8  8  8  8  8 50  0  0  8 32
 5  5 26 12 12  8  8  0  0  5  5  5  5 26  8  8  0 7
 9  3 17 16 10  3  15 0  13 2  3  17 14 0  12 6  8 0